n = 100;
capacity = 100;
size = [79, 79, 79, 79, 77, 77, 76, 75, 75, 74, 73, 73, 71, 70, 70, 70, 68, 68, 68, 68, 66, 65, 64, 64, 64, 63, 63, 63, 63, 62, 62, 62, 60, 59, 59, 59, 59, 58, 58, 57, 57, 55, 55, 54, 52, 51, 50, 50, 49, 49, 49, 48, 47, 47, 46, 45, 44, 44, 44, 43, 42, 42, 42, 41, 41, 41, 40, 39, 39, 39, 39, 38, 38, 38, 37, 36, 35, 35, 34, 34, 33, 32, 32, 32, 32, 31, 30, 30, 28, 27, 26, 24, 24, 23, 21, 21, 21, 21, 20, 20];
